NAME : A-n80-k10.1067090.tour
COMMENT : Length = 1067090
COMMENT : Found by LKH [Keld Helsgaun] Sun Dec 17 18:50:19 2017
TYPE : TOUR
DIMENSION : 89
TOUR_SECTION
1
54
65
47
26
42
16
34
56
10
55
85
50
74
37
68
67
39
59
86
14
43
52
78
4
40
61
81
30
28
60
79
69
44
17
62
58
89
64
12
53
35
25
3
38
9
83
63
24
13
45
6
31
7
84
41
22
2
8
82
11
72
15
29
80
49
19
88
75
18
32
21
76
20
48
57
70
66
36
27
87
71
73
77
51
33
46
23
5
-1
EOF
